c Standarized MaxSat Instance
c{
c "sha1sum": "5f6e0042fa9eb23a602d7e1bd9fdd75cf98eb380",
c "nvars": 40,
c "ncls": 1096,
c "nhards": 0,
c "nhard_len_stats":
c    { "min": 0, "max": 0, "ave": 0.00,
c      "stddev": 0.00 },
c "nsofts": 1096,
c "nsoft_len_stats":
c    { "min": 2, "max": 2, "ave": 2.00,
c      "stddev": 0.00 },
c "nsoft_wts": 10,
c "soft_wt_stats":
c    { "min": 1, "max": 10, "ave": 5.66,
c      "stddev": 2.81 }
c}
c------------------------------------------------------------
c File:  sanr400_0.7.clq
c
c SOURCE: Laura Sanchis (laura@cs.colgate.edu)
c
c DESCRIPTION:  Randomly generated graph of similar size to "san"
c               graphs, but with differenct clique characteristics
c
c REFERENCE: "Test Case Construction for the Vertex Cover Problem", 
c DIMACS Workshop on Computational Support for Discrete Mathematics, 
c March, 1992, with additional work in a to be published technical
c report.
c
c random graph 400 vertices 55869 edges
c 400 0.300000 972
p wcnf 40 1096 6209
9 1 2 0
9 -1 -2 0
4 1 3 0
4 -1 -3 0
8 1 5 0
8 -1 -5 0
8 1 8 0
8 -1 -8 0
10 1 9 0
10 -1 -9 0
2 1 10 0
2 -1 -10 0
4 1 11 0
4 -1 -11 0
8 1 13 0
8 -1 -13 0
3 1 16 0
3 -1 -16 0
6 1 17 0
6 -1 -17 0
5 1 18 0
5 -1 -18 0
7 1 20 0
7 -1 -20 0
4 1 22 0
4 -1 -22 0
6 1 23 0
6 -1 -23 0
10 1 24 0
10 -1 -24 0
10 1 27 0
10 -1 -27 0
7 1 29 0
7 -1 -29 0
8 1 30 0
8 -1 -30 0
2 1 32 0
2 -1 -32 0
7 1 33 0
7 -1 -33 0
1 1 34 0
1 -1 -34 0
3 1 35 0
3 -1 -35 0
2 1 37 0
2 -1 -37 0
9 1 40 0
9 -1 -40 0
2 2 3 0
2 -2 -3 0
5 2 4 0
5 -2 -4 0
2 2 6 0
2 -2 -6 0
2 2 7 0
2 -2 -7 0
10 2 9 0
10 -2 -9 0
3 2 11 0
3 -2 -11 0
6 2 12 0
6 -2 -12 0
9 2 13 0
9 -2 -13 0
7 2 14 0
7 -2 -14 0
3 2 16 0
3 -2 -16 0
7 2 18 0
7 -2 -18 0
6 2 19 0
6 -2 -19 0
5 2 20 0
5 -2 -20 0
10 2 21 0
10 -2 -21 0
3 2 22 0
3 -2 -22 0
8 2 23 0
8 -2 -23 0
6 2 24 0
6 -2 -24 0
8 2 25 0
8 -2 -25 0
5 2 26 0
5 -2 -26 0
9 2 27 0
9 -2 -27 0
3 2 29 0
3 -2 -29 0
4 2 31 0
4 -2 -31 0
9 2 32 0
9 -2 -32 0
10 2 33 0
10 -2 -33 0
1 2 34 0
1 -2 -34 0
10 2 36 0
10 -2 -36 0
6 2 37 0
6 -2 -37 0
1 2 38 0
1 -2 -38 0
2 2 39 0
2 -2 -39 0
7 3 4 0
7 -3 -4 0
9 3 5 0
9 -3 -5 0
4 3 6 0
4 -3 -6 0
1 3 7 0
1 -3 -7 0
1 3 10 0
1 -3 -10 0
5 3 12 0
5 -3 -12 0
1 3 13 0
1 -3 -13 0
3 3 14 0
3 -3 -14 0
10 3 15 0
10 -3 -15 0
10 3 16 0
10 -3 -16 0
9 3 17 0
9 -3 -17 0
3 3 18 0
3 -3 -18 0
6 3 22 0
6 -3 -22 0
4 3 23 0
4 -3 -23 0
8 3 25 0
8 -3 -25 0
6 3 26 0
6 -3 -26 0
7 3 27 0
7 -3 -27 0
6 3 28 0
6 -3 -28 0
1 3 29 0
1 -3 -29 0
5 3 32 0
5 -3 -32 0
10 3 33 0
10 -3 -33 0
10 3 34 0
10 -3 -34 0
8 3 38 0
8 -3 -38 0
3 3 39 0
3 -3 -39 0
8 3 40 0
8 -3 -40 0
7 4 5 0
7 -4 -5 0
4 4 6 0
4 -4 -6 0
7 4 8 0
7 -4 -8 0
2 4 9 0
2 -4 -9 0
5 4 12 0
5 -4 -12 0
9 4 13 0
9 -4 -13 0
9 4 15 0
9 -4 -15 0
4 4 16 0
4 -4 -16 0
3 4 17 0
3 -4 -17 0
9 4 19 0
9 -4 -19 0
4 4 20 0
4 -4 -20 0
7 4 21 0
7 -4 -21 0
10 4 22 0
10 -4 -22 0
6 4 23 0
6 -4 -23 0
7 4 26 0
7 -4 -26 0
9 4 29 0
9 -4 -29 0
5 4 30 0
5 -4 -30 0
10 4 31 0
10 -4 -31 0
4 4 33 0
4 -4 -33 0
9 4 34 0
9 -4 -34 0
7 4 35 0
7 -4 -35 0
10 4 37 0
10 -4 -37 0
5 4 39 0
5 -4 -39 0
3 5 7 0
3 -5 -7 0
10 5 8 0
10 -5 -8 0
10 5 9 0
10 -5 -9 0
2 5 10 0
2 -5 -10 0
9 5 11 0
9 -5 -11 0
7 5 12 0
7 -5 -12 0
5 5 13 0
5 -5 -13 0
7 5 14 0
7 -5 -14 0
3 5 17 0
3 -5 -17 0
8 5 18 0
8 -5 -18 0
4 5 19 0
4 -5 -19 0
5 5 20 0
5 -5 -20 0
3 5 21 0
3 -5 -21 0
2 5 25 0
2 -5 -25 0
3 5 27 0
3 -5 -27 0
6 5 28 0
6 -5 -28 0
5 5 29 0
5 -5 -29 0
2 5 30 0
2 -5 -30 0
10 5 33 0
10 -5 -33 0
2 5 34 0
2 -5 -34 0
2 5 35 0
2 -5 -35 0
5 5 36 0
5 -5 -36 0
8 5 37 0
8 -5 -37 0
10 5 38 0
10 -5 -38 0
10 5 40 0
10 -5 -40 0
7 6 9 0
7 -6 -9 0
4 6 10 0
4 -6 -10 0
8 6 11 0
8 -6 -11 0
4 6 13 0
4 -6 -13 0
3 6 14 0
3 -6 -14 0
3 6 17 0
3 -6 -17 0
6 6 19 0
6 -6 -19 0
3 6 20 0
3 -6 -20 0
2 6 21 0
2 -6 -21 0
8 6 22 0
8 -6 -22 0
2 6 24 0
2 -6 -24 0
8 6 25 0
8 -6 -25 0
2 6 27 0
2 -6 -27 0
8 6 28 0
8 -6 -28 0
1 6 29 0
1 -6 -29 0
10 6 30 0
10 -6 -30 0
1 6 32 0
1 -6 -32 0
6 6 33 0
6 -6 -33 0
2 6 34 0
2 -6 -34 0
3 6 35 0
3 -6 -35 0
8 6 36 0
8 -6 -36 0
8 6 39 0
8 -6 -39 0
7 7 8 0
7 -7 -8 0
10 7 10 0
10 -7 -10 0
7 7 11 0
7 -7 -11 0
8 7 14 0
8 -7 -14 0
1 7 15 0
1 -7 -15 0
2 7 16 0
2 -7 -16 0
6 7 17 0
6 -7 -17 0
1 7 23 0
1 -7 -23 0
1 7 24 0
1 -7 -24 0
3 7 26 0
3 -7 -26 0
5 7 27 0
5 -7 -27 0
9 7 28 0
9 -7 -28 0
6 7 29 0
6 -7 -29 0
8 7 30 0
8 -7 -30 0
1 7 31 0
1 -7 -31 0
2 7 33 0
2 -7 -33 0
10 7 34 0
10 -7 -34 0
3 7 35 0
3 -7 -35 0
9 7 36 0
9 -7 -36 0
2 7 37 0
2 -7 -37 0
10 7 38 0
10 -7 -38 0
1 7 39 0
1 -7 -39 0
9 8 9 0
9 -8 -9 0
1 8 11 0
1 -8 -11 0
1 8 12 0
1 -8 -12 0
10 8 14 0
10 -8 -14 0
6 8 15 0
6 -8 -15 0
2 8 17 0
2 -8 -17 0
2 8 19 0
2 -8 -19 0
4 8 20 0
4 -8 -20 0
10 8 21 0
10 -8 -21 0
9 8 22 0
9 -8 -22 0
4 8 23 0
4 -8 -23 0
6 8 25 0
6 -8 -25 0
6 8 26 0
6 -8 -26 0
5 8 27 0
5 -8 -27 0
7 8 28 0
7 -8 -28 0
1 8 29 0
1 -8 -29 0
6 8 30 0
6 -8 -30 0
8 8 31 0
8 -8 -31 0
4 8 32 0
4 -8 -32 0
10 8 33 0
10 -8 -33 0
6 8 34 0
6 -8 -34 0
9 8 35 0
9 -8 -35 0
8 8 37 0
8 -8 -37 0
7 8 38 0
7 -8 -38 0
1 8 39 0
1 -8 -39 0
8 8 40 0
8 -8 -40 0
9 9 10 0
9 -9 -10 0
10 9 11 0
10 -9 -11 0
9 9 12 0
9 -9 -12 0
9 9 13 0
9 -9 -13 0
10 9 14 0
10 -9 -14 0
8 9 15 0
8 -9 -15 0
10 9 16 0
10 -9 -16 0
10 9 17 0
10 -9 -17 0
7 9 19 0
7 -9 -19 0
5 9 20 0
5 -9 -20 0
2 9 21 0
2 -9 -21 0
9 9 22 0
9 -9 -22 0
9 9 23 0
9 -9 -23 0
1 9 26 0
1 -9 -26 0
7 9 27 0
7 -9 -27 0
3 9 29 0
3 -9 -29 0
7 9 30 0
7 -9 -30 0
3 9 31 0
3 -9 -31 0
8 9 32 0
8 -9 -32 0
4 9 33 0
4 -9 -33 0
4 9 34 0
4 -9 -34 0
3 9 35 0
3 -9 -35 0
1 9 37 0
1 -9 -37 0
7 9 38 0
7 -9 -38 0
3 9 39 0
3 -9 -39 0
7 10 11 0
7 -10 -11 0
6 10 12 0
6 -10 -12 0
10 10 13 0
10 -10 -13 0
3 10 14 0
3 -10 -14 0
6 10 16 0
6 -10 -16 0
8 10 18 0
8 -10 -18 0
2 10 19 0
2 -10 -19 0
5 10 22 0
5 -10 -22 0
6 10 24 0
6 -10 -24 0
10 10 25 0
10 -10 -25 0
5 10 26 0
5 -10 -26 0
4 10 27 0
4 -10 -27 0
9 10 28 0
9 -10 -28 0
5 10 29 0
5 -10 -29 0
1 10 30 0
1 -10 -30 0
4 10 31 0
4 -10 -31 0
6 10 32 0
6 -10 -32 0
9 10 33 0
9 -10 -33 0
3 10 35 0
3 -10 -35 0
7 10 36 0
7 -10 -36 0
5 10 37 0
5 -10 -37 0
5 10 38 0
5 -10 -38 0
4 10 39 0
4 -10 -39 0
8 10 40 0
8 -10 -40 0
2 11 12 0
2 -11 -12 0
7 11 13 0
7 -11 -13 0
1 11 15 0
1 -11 -15 0
5 11 16 0
5 -11 -16 0
7 11 18 0
7 -11 -18 0
7 11 19 0
7 -11 -19 0
7 11 20 0
7 -11 -20 0
4 11 21 0
4 -11 -21 0
2 11 22 0
2 -11 -22 0
7 11 23 0
7 -11 -23 0
7 11 24 0
7 -11 -24 0
8 11 25 0
8 -11 -25 0
4 11 26 0
4 -11 -26 0
8 11 27 0
8 -11 -27 0
3 11 29 0
3 -11 -29 0
10 11 30 0
10 -11 -30 0
7 11 32 0
7 -11 -32 0
7 11 33 0
7 -11 -33 0
3 11 35 0
3 -11 -35 0
6 11 36 0
6 -11 -36 0
1 11 37 0
1 -11 -37 0
3 11 38 0
3 -11 -38 0
9 11 40 0
9 -11 -40 0
7 12 13 0
7 -12 -13 0
1 12 15 0
1 -12 -15 0
2 12 16 0
2 -12 -16 0
4 12 19 0
4 -12 -19 0
6 12 20 0
6 -12 -20 0
6 12 21 0
6 -12 -21 0
7 12 22 0
7 -12 -22 0
3 12 23 0
3 -12 -23 0
8 12 26 0
8 -12 -26 0
3 12 28 0
3 -12 -28 0
4 12 29 0
4 -12 -29 0
2 12 30 0
2 -12 -30 0
10 12 32 0
10 -12 -32 0
1 12 33 0
1 -12 -33 0
9 12 34 0
9 -12 -34 0
4 12 36 0
4 -12 -36 0
2 12 38 0
2 -12 -38 0
5 12 39 0
5 -12 -39 0
10 13 14 0
10 -13 -14 0
10 13 16 0
10 -13 -16 0
8 13 18 0
8 -13 -18 0
7 13 20 0
7 -13 -20 0
2 13 21 0
2 -13 -21 0
7 13 22 0
7 -13 -22 0
4 13 23 0
4 -13 -23 0
8 13 24 0
8 -13 -24 0
10 13 25 0
10 -13 -25 0
10 13 26 0
10 -13 -26 0
9 13 27 0
9 -13 -27 0
3 13 28 0
3 -13 -28 0
8 13 29 0
8 -13 -29 0
6 13 30 0
6 -13 -30 0
3 13 33 0
3 -13 -33 0
10 13 34 0
10 -13 -34 0
10 13 36 0
10 -13 -36 0
9 13 37 0
9 -13 -37 0
5 13 38 0
5 -13 -38 0
6 13 39 0
6 -13 -39 0
2 13 40 0
2 -13 -40 0
3 14 15 0
3 -14 -15 0
9 14 21 0
9 -14 -21 0
5 14 22 0
5 -14 -22 0
5 14 23 0
5 -14 -23 0
9 14 24 0
9 -14 -24 0
5 14 26 0
5 -14 -26 0
3 14 27 0
3 -14 -27 0
2 14 28 0
2 -14 -28 0
7 14 30 0
7 -14 -30 0
8 14 31 0
8 -14 -31 0
2 14 36 0
2 -14 -36 0
7 14 38 0
7 -14 -38 0
5 14 39 0
5 -14 -39 0
9 14 40 0
9 -14 -40 0
8 15 16 0
8 -15 -16 0
2 15 17 0
2 -15 -17 0
3 15 19 0
3 -15 -19 0
5 15 20 0
5 -15 -20 0
2 15 21 0
2 -15 -21 0
2 15 22 0
2 -15 -22 0
4 15 23 0
4 -15 -23 0
4 15 25 0
4 -15 -25 0
10 15 26 0
10 -15 -26 0
10 15 28 0
10 -15 -28 0
7 15 29 0
7 -15 -29 0
9 15 30 0
9 -15 -30 0
9 15 34 0
9 -15 -34 0
5 15 36 0
5 -15 -36 0
4 15 37 0
4 -15 -37 0
4 15 38 0
4 -15 -38 0
7 15 39 0
7 -15 -39 0
7 16 17 0
7 -16 -17 0
3 16 18 0
3 -16 -18 0
2 16 19 0
2 -16 -19 0
1 16 20 0
1 -16 -20 0
2 16 21 0
2 -16 -21 0
7 16 23 0
7 -16 -23 0
4 16 24 0
4 -16 -24 0
3 16 26 0
3 -16 -26 0
4 16 27 0
4 -16 -27 0
1 16 28 0
1 -16 -28 0
5 16 31 0
5 -16 -31 0
10 16 32 0
10 -16 -32 0
6 16 33 0
6 -16 -33 0
3 16 34 0
3 -16 -34 0
7 16 35 0
7 -16 -35 0
8 16 37 0
8 -16 -37 0
5 16 39 0
5 -16 -39 0
2 16 40 0
2 -16 -40 0
9 17 18 0
9 -17 -18 0
7 17 19 0
7 -17 -19 0
6 17 20 0
6 -17 -20 0
3 17 25 0
3 -17 -25 0
6 17 27 0
6 -17 -27 0
5 17 29 0
5 -17 -29 0
9 17 30 0
9 -17 -30 0
4 17 32 0
4 -17 -32 0
3 17 33 0
3 -17 -33 0
4 17 38 0
4 -17 -38 0
8 17 39 0
8 -17 -39 0
7 17 40 0
7 -17 -40 0
10 18 21 0
10 -18 -21 0
4 18 23 0
4 -18 -23 0
9 18 24 0
9 -18 -24 0
2 18 25 0
2 -18 -25 0
5 18 27 0
5 -18 -27 0
1 18 28 0
1 -18 -28 0
8 18 29 0
8 -18 -29 0
8 18 30 0
8 -18 -30 0
3 18 31 0
3 -18 -31 0
2 18 32 0
2 -18 -32 0
9 18 33 0
9 -18 -33 0
8 18 34 0
8 -18 -34 0
1 18 35 0
1 -18 -35 0
5 18 36 0
5 -18 -36 0
10 18 38 0
10 -18 -38 0
8 18 39 0
8 -18 -39 0
3 18 40 0
3 -18 -40 0
5 19 21 0
5 -19 -21 0
9 19 22 0
9 -19 -22 0
1 19 23 0
1 -19 -23 0
1 19 24 0
1 -19 -24 0
4 19 26 0
4 -19 -26 0
4 19 28 0
4 -19 -28 0
7 19 30 0
7 -19 -30 0
9 19 32 0
9 -19 -32 0
2 19 34 0
2 -19 -34 0
1 19 37 0
1 -19 -37 0
1 19 40 0
1 -19 -40 0
5 20 21 0
5 -20 -21 0
8 20 23 0
8 -20 -23 0
7 20 25 0
7 -20 -25 0
5 20 27 0
5 -20 -27 0
2 20 29 0
2 -20 -29 0
6 20 30 0
6 -20 -30 0
6 20 31 0
6 -20 -31 0
6 20 32 0
6 -20 -32 0
6 20 34 0
6 -20 -34 0
4 20 35 0
4 -20 -35 0
4 20 37 0
4 -20 -37 0
9 20 38 0
9 -20 -38 0
5 20 39 0
5 -20 -39 0
2 20 40 0
2 -20 -40 0
7 21 22 0
7 -21 -22 0
6 21 23 0
6 -21 -23 0
7 21 24 0
7 -21 -24 0
6 21 26 0
6 -21 -26 0
3 21 27 0
3 -21 -27 0
9 21 29 0
9 -21 -29 0
1 21 32 0
1 -21 -32 0
1 21 33 0
1 -21 -33 0
10 21 36 0
10 -21 -36 0
2 21 37 0
2 -21 -37 0
5 21 38 0
5 -21 -38 0
3 21 40 0
3 -21 -40 0
9 22 23 0
9 -22 -23 0
3 22 24 0
3 -22 -24 0
4 22 26 0
4 -22 -26 0
9 22 27 0
9 -22 -27 0
4 22 28 0
4 -22 -28 0
9 22 29 0
9 -22 -29 0
7 22 30 0
7 -22 -30 0
1 22 32 0
1 -22 -32 0
3 22 34 0
3 -22 -34 0
8 22 35 0
8 -22 -35 0
7 22 39 0
7 -22 -39 0
9 22 40 0
9 -22 -40 0
4 23 25 0
4 -23 -25 0
3 23 26 0
3 -23 -26 0
2 23 27 0
2 -23 -27 0
7 23 28 0
7 -23 -28 0
2 23 29 0
2 -23 -29 0
7 23 30 0
7 -23 -30 0
8 23 32 0
8 -23 -32 0
8 23 33 0
8 -23 -33 0
3 23 35 0
3 -23 -35 0
5 23 37 0
5 -23 -37 0
4 23 38 0
4 -23 -38 0
5 24 27 0
5 -24 -27 0
3 24 28 0
3 -24 -28 0
4 24 29 0
4 -24 -29 0
6 24 30 0
6 -24 -30 0
2 24 31 0
2 -24 -31 0
6 24 32 0
6 -24 -32 0
1 24 33 0
1 -24 -33 0
4 24 35 0
4 -24 -35 0
4 24 37 0
4 -24 -37 0
4 24 38 0
4 -24 -38 0
8 24 39 0
8 -24 -39 0
3 24 40 0
3 -24 -40 0
7 25 26 0
7 -25 -26 0
6 25 27 0
6 -25 -27 0
10 25 28 0
10 -25 -28 0
7 25 30 0
7 -25 -30 0
9 25 31 0
9 -25 -31 0
7 25 32 0
7 -25 -32 0
4 25 33 0
4 -25 -33 0
7 25 35 0
7 -25 -35 0
1 25 36 0
1 -25 -36 0
6 25 37 0
6 -25 -37 0
9 26 27 0
9 -26 -27 0
7 26 28 0
7 -26 -28 0
7 26 29 0
7 -26 -29 0
6 26 30 0
6 -26 -30 0
5 26 31 0
5 -26 -31 0
4 26 32 0
4 -26 -32 0
8 26 33 0
8 -26 -33 0
9 26 34 0
9 -26 -34 0
7 26 35 0
7 -26 -35 0
2 26 36 0
2 -26 -36 0
1 26 37 0
1 -26 -37 0
1 26 38 0
1 -26 -38 0
7 26 40 0
7 -26 -40 0
2 27 28 0
2 -27 -28 0
7 27 29 0
7 -27 -29 0
8 27 30 0
8 -27 -30 0
6 27 31 0
6 -27 -31 0
1 27 32 0
1 -27 -32 0
1 27 34 0
1 -27 -34 0
4 27 35 0
4 -27 -35 0
3 27 37 0
3 -27 -37 0
7 27 38 0
7 -27 -38 0
9 27 39 0
9 -27 -39 0
2 27 40 0
2 -27 -40 0
4 28 29 0
4 -28 -29 0
7 28 31 0
7 -28 -31 0
9 28 32 0
9 -28 -32 0
7 28 33 0
7 -28 -33 0
4 28 35 0
4 -28 -35 0
9 28 36 0
9 -28 -36 0
2 28 37 0
2 -28 -37 0
2 28 38 0
2 -28 -38 0
6 28 39 0
6 -28 -39 0
9 29 30 0
9 -29 -30 0
7 29 31 0
7 -29 -31 0
10 29 32 0
10 -29 -32 0
2 29 34 0
2 -29 -34 0
4 29 35 0
4 -29 -35 0
8 30 31 0
8 -30 -31 0
9 30 32 0
9 -30 -32 0
6 30 34 0
6 -30 -34 0
8 30 35 0
8 -30 -35 0
10 30 36 0
10 -30 -36 0
3 30 38 0
3 -30 -38 0
10 30 39 0
10 -30 -39 0
6 30 40 0
6 -30 -40 0
10 31 33 0
10 -31 -33 0
5 31 34 0
5 -31 -34 0
6 31 36 0
6 -31 -36 0
10 31 37 0
10 -31 -37 0
8 31 40 0
8 -31 -40 0
9 32 33 0
9 -32 -33 0
6 32 34 0
6 -32 -34 0
7 32 38 0
7 -32 -38 0
10 32 39 0
10 -32 -39 0
10 32 40 0
10 -32 -40 0
4 33 34 0
4 -33 -34 0
9 33 35 0
9 -33 -35 0
6 33 36 0
6 -33 -36 0
7 33 37 0
7 -33 -37 0
8 33 39 0
8 -33 -39 0
8 33 40 0
8 -33 -40 0
8 34 35 0
8 -34 -35 0
3 34 36 0
3 -34 -36 0
7 34 38 0
7 -34 -38 0
5 34 39 0
5 -34 -39 0
2 34 40 0
2 -34 -40 0
8 35 36 0
8 -35 -36 0
9 35 37 0
9 -35 -37 0
9 35 38 0
9 -35 -38 0
7 35 39 0
7 -35 -39 0
5 35 40 0
5 -35 -40 0
7 36 37 0
7 -36 -37 0
6 36 39 0
6 -36 -39 0
7 36 40 0
7 -36 -40 0
6 37 38 0
6 -37 -38 0
2 37 39 0
2 -37 -39 0
6 37 40 0
6 -37 -40 0
1 38 39 0
1 -38 -39 0
8 38 40 0
8 -38 -40 0
6 39 40 0
6 -39 -40 0
